************************************************************************
file with basedata            : cm557_.bas
initial value random generator: 9468
************************************************************************
projects                      :  1
jobs (incl. supersource/sink ):  18
horizon                       :  142
RESOURCES
  - renewable                 :  2   R
  - nonrenewable              :  2   N
  - doubly constrained        :  0   D
************************************************************************
PROJECT INFORMATION:
pronr.  #jobs rel.date duedate tardcost  MPM-Time
    1     16      0       18        1       18
************************************************************************
PRECEDENCE RELATIONS:
jobnr.    #modes  #successors   successors
   1        1          3           2   3   4
   2        5          3           5   9  14
   3        5          3           9  14  17
   4        5          3           6   9  14
   5        5          1           6
   6        5          3           7   8  11
   7        5          2          10  12
   8        5          2          12  15
   9        5          1          15
  10        5          3          13  16  17
  11        5          3          12  13  16
  12        5          1          17
  13        5          1          15
  14        5          1          16
  15        5          1          18
  16        5          1          18
  17        5          1          18
  18        1          0        
************************************************************************
REQUESTS/DURATIONS:
jobnr. mode duration  R 1  R 2  N 1  N 2
------------------------------------------------------------------------
  1      1     0       0    0    0    0
  2      1     5       0   10    7    5
         2     6       0    7    7    5
         3     7       7    0    5    4
         4     9       0    3    4    4
         5    10       6    0    3    4
  3      1     2       2    0    9    4
         2     3       0    6    9    4
         3     4       2    0    8    3
         4     5       1    0    7    3
         5     9       0    6    7    3
  4      1     4       7    0    8    9
         2     4       8    0    7    9
         3     5       6    0    5    7
         4     8       4    0    4    4
         5     9       0    3    1    4
  5      1     4       0    8    5   10
         2     7       0    4    5    8
         3     8      10    0    3    5
         4     9       9    0    2    3
         5    10       9    0    1    3
  6      1     3       0    5    5    8
         2     4       8    0    5    8
         3     5       8    0    4    6
         4     8       6    0    4    5
         5    10       0    5    4    3
  7      1     1       6    0    7    5
         2     2       5    0    7    5
         3     7       0    3    6    5
         4     8       0    2    4    5
         5    10       0    2    2    5
  8      1     2       0    6    8   10
         2     4       0    5    8    8
         3     5       1    0    7    6
         4     6       1    0    7    5
         5     8       1    0    6    3
  9      1     2       9    0    9    6
         2     2       8    0   10    6
         3     3       0    3    8    6
         4     9       6    0    7    5
         5    10       4    0    7    5
 10      1     1       5    0   10    7
         2     4       0    9   10    5
         3     4       5    0   10    5
         4     5       0    8   10    3
         5     5       4    0   10    4
 11      1     3       8    0    8    8
         2     6       0    9    6    7
         3     7       0    8    5    6
         4     9       0    7    4    5
         5    10       0    6    1    4
 12      1     1       0    3    9    7
         2     1       0    4    8    6
         3     3       6    0    7    4
         4     5       4    0    5    4
         5     7       1    0    5    1
 13      1     1       0   10    5    6
         2     2       0    5    5    6
         3     2       3    0    5    6
         4     4       2    0    4    5
         5     7       2    0    3    5
 14      1     3       6    0    8    5
         2     3       8    0    8    4
         3     3       7    0    7    5
         4     8       6    0    5    4
         5    10       2    0    4    3
 15      1     1       6    0    8    9
         2     3       0    8    7    9
         3     6       6    0    6    9
         4     6       0    8    6    9
         5     9       4    0    5    9
 16      1     3      10    0   10   10
         2     5       9    0   10    8
         3     7       7    0   10    7
         4     7       0    6   10    7
         5     8       7    0   10    3
 17      1     2       8    0    3    7
         2     3       0    8    2    7
         3     5       0    5    2    6
         4     9       8    0    1    5
         5    10       6    0    1    5
 18      1     0       0    0    0    0
************************************************************************
RESOURCEAVAILABILITIES:
  R 1  R 2  N 1  N 2
    8    6  120  116
************************************************************************
